1555060
0 11 41817
11 41 50174
41 31 39053
31 55 42067
55 39 23020
39 4 62974
4 18 144807
18 48 15300
48 22 190835
22 59 277922
59 28 79568
28 24 28952
24 29 184473
29 40 149996
40 5 25482
5 63 29510
63 10 201864
10 65 248942
65 25 48320
25 54 51419
54 33 104842
33 45 154690
45 42 38902
42 6 34577
6 66 126035
66 37 206270
37 20 49940
20 2 96020
2 60 10950
60 23 110321
23 62 112709
62 15 280191
15 58 272707
58 35 233995
35 49 61337
49 27 59662
27 30 165561
30 21 185059
21 51 152203
51 32 23604
32 56 25499
56 17 128320
17 9 195157
9 13 129983
13 43 206641
43 52 172018
52 36 20026
36 61 59546
61 38 114008
38 50 69606
50 34 192576
34 67 170637
67 7 117302
7 14 150165
14 57 123347
57 8 224402
8 16 200859
16 26 20945
26 44 81750
44 64 28449
64 1 145067
1 47 120234
47 3 83417
3 19 102795
19 46 133687
46 12 58671
12 53 161840
53 0 100351